9138863182981953724506,11,1,2,014,3,1,2,03,5,1,2,06,6,1,2,015,10,1,2,02,7,1,2,09,12,1,2,014,9,1,2,010,5,1,2,013,14,1,2,012,1,1,2,06,11,1,2,01,13,1,2,010,15,1,2,06,2,1,2,014,15,1,2,07,3,1,2,011,8,1,2,08,11,1,2,014,13,1,2,012,1,1,2,05,9,1,2,04,15,1,2,07,15,1,2,09,10,1,2,013,4,1,2,07,10,1,2,05,15,1,2,05,10,1,2,015,5,1,2,03,9,1,2,04,4,1,2,03,15,1,2,014,15,1,2,011,14,1,2,014,7,1,2,02,5,1,2,012,8,1,2,02,8,1,2,01,13,1,2,01,5,1,2,010,4,1,2,014,12,1,2,05,15,1,2,08,14,1,2,03,4,1,2,012,2,1,2,01,6,1,2,010,1,1,2,011,15,1,2,0